50
500
349
344
339
336
335
332
324
321
318
309
307
304
297
289
287
275
273
269
263
263
256
254
252
247
237
234
225
219
210
210
204
200
199
199
198
191
182
173
168
160
155
144
138
129
120
118
108
104
104
102
